outputs/case_393.model.txt
related_insurance_type_agent_notary = True
liability_insurance = True
bank_license_permitted = False
liability_insurance_subscribed = True
guarantee_insurance_subscribed = True
broker_duty_of_care = True
broker_duty_of_fidelity = True
bank_operate_as_agent = False
written_analysis_report_provided = True
fee_disclosure_made = False
fee_collected = False
bank_operate_as_broker = False
guarantee_deposit_paid = True
broker_must_provide_written_report_and_disclose_fee = True
license_permitted = True
related_insurance_type_broker = True
broker_duty_of_care_and_fidelity = True
penalty = False
bank_permitted_to_operate_agent_or_broker = False
related_insurance_subscribed = True
agent_broker_notary_license_and_guarantee = True
practice_certificate_held = True